(set-logic UF)
(declare-sort Set 0)
(declare-sort Elem 0)
(declare-fun member (Elem Set) Bool)
(declare-fun subset (Set Set) Bool)
(declare-fun seteq (Set Set) Bool)
(declare-fun union (Set Set) Set)
(declare-fun intersection (Set Set) Set)
(declare-fun difference (Set Set) Set)
(declare-fun a () Set)
(declare-fun b () Set)
(assert (not (or (or (not (member (choice ((?x Elem)) (not (or (not (member ?x (intersection a b))) (member ?x (difference a (difference a b)))))) (intersection a b))) (member (choice ((?x Elem)) (not (or (not (member ?x (intersection a b))) (member ?x (difference a (difference a b)))))) (difference a (difference a b)))) (not (not (member (choice ((?x Elem)) (not (or (not (member ?x (intersection a b))) (member ?x (difference a (difference a b)))))) (intersection a b)))))))
(assert (not (not (not (not (member (choice ((?x Elem)) (not (or (not (member ?x (intersection a b))) (member ?x (difference a (difference a b)))))) (intersection a b)))))))
(check-sat)
(exit)
